c File: data_files/evolved_graphs/g6223.col
c
c Auto generated graph
c
p edge 100 491
e 1 37
e 1 38
e 1 39
e 1 40
e 1 41
e 1 44
e 1 47
e 1 49
e 1 50
e 1 54
e 1 61
e 1 62
e 1 66
e 1 68
e 1 69
e 1 71
e 1 72
e 1 73
e 1 74
e 1 76
e 1 79
e 1 84
e 1 88
e 1 90
e 1 98
e 2 30
e 2 38
e 2 39
e 2 40
e 2 41
e 2 44
e 2 47
e 2 49
e 2 50
e 2 52
e 2 54
e 2 61
e 2 66
e 2 68
e 2 69
e 2 72
e 2 73
e 2 74
e 2 76
e 2 80
e 2 84
e 2 88
e 2 89
e 2 90
e 2 98
e 3 36
e 3 38
e 3 39
e 3 40
e 3 41
e 3 42
e 3 43
e 3 44
e 3 46
e 3 48
e 3 49
e 3 50
e 3 54
e 3 57
e 3 61
e 3 74
e 3 84
e 3 90
e 3 95
e 3 98
e 4 10
e 4 27
e 4 28
e 4 41
e 4 42
e 4 43
e 4 44
e 4 45
e 4 46
e 4 47
e 4 48
e 4 49
e 4 50
e 4 54
e 4 59
e 4 60
e 4 61
e 4 62
e 4 63
e 4 76
e 4 89
e 4 99
e 5 14
e 5 25
e 5 26
e 5 27
e 5 28
e 5 29
e 5 30
e 5 31
e 5 32
e 5 33
e 5 42
e 5 46
e 5 57
e 5 61
e 5 81
e 5 82
e 5 87
e 5 95
e 5 96
e 6 24
e 6 25
e 6 26
e 6 27
e 6 28
e 6 29
e 6 30
e 6 31
e 6 32
e 6 33
e 6 36
e 6 45
e 6 88
e 7 25
e 7 26
e 7 27
e 7 28
e 7 29
e 7 30
e 7 32
e 7 33
e 7 47
e 7 54
e 7 59
e 7 68
e 7 89
e 7 96
e 8 24
e 8 25
e 8 27
e 8 28
e 8 30
e 8 32
e 8 33
e 8 34
e 8 43
e 8 47
e 8 51
e 8 60
e 8 79
e 8 87
e 8 92
e 8 100
e 9 24
e 9 25
e 9 26
e 9 27
e 9 28
e 9 29
e 9 30
e 9 31
e 9 32
e 9 33
e 9 34
e 9 35
e 9 36
e 9 37
e 9 47
e 9 53
e 9 54
e 9 55
e 9 56
e 9 60
e 9 98
e 10 25
e 10 26
e 10 27
e 10 28
e 10 29
e 10 30
e 10 31
e 10 32
e 10 33
e 10 34
e 10 35
e 10 51
e 10 53
e 10 83
e 10 89
e 10 98
e 10 100
e 11 25
e 11 26
e 11 27
e 11 28
e 11 29
e 11 30
e 11 31
e 11 32
e 11 33
e 11 34
e 11 35
e 11 43
e 12 25
e 12 26
e 12 27
e 12 28
e 12 29
e 12 30
e 12 31
e 12 32
e 12 33
e 12 34
e 12 53
e 13 25
e 13 26
e 13 27
e 13 28
e 13 29
e 13 30
e 13 31
e 13 32
e 13 33
e 13 90
e 14 21
e 14 25
e 14 26
e 14 27
e 14 28
e 14 29
e 14 30
e 14 32
e 14 33
e 14 43
e 14 95
e 15 25
e 15 26
e 15 27
e 15 28
e 15 29
e 15 30
e 15 31
e 15 32
e 15 33
e 15 37
e 15 39
e 15 42
e 15 43
e 15 44
e 15 52
e 15 53
e 15 54
e 15 93
e 15 95
e 15 100
e 16 31
e 16 32
e 16 33
e 16 35
e 16 36
e 16 37
e 16 38
e 16 39
e 16 40
e 16 41
e 16 42
e 16 44
e 16 64
e 16 76
e 16 87
e 16 100
e 17 30
e 17 31
e 17 32
e 17 33
e 17 35
e 17 36
e 17 37
e 17 38
e 17 39
e 17 40
e 17 41
e 17 42
e 17 100
e 18 30
e 18 31
e 18 33
e 18 35
e 18 37
e 18 38
e 18 39
e 18 40
e 18 41
e 18 42
e 18 100
e 19 25
e 19 26
e 19 27
e 19 28
e 19 29
e 19 30
e 19 31
e 19 32
e 19 33
e 19 35
e 19 36
e 19 37
e 19 38
e 19 39
e 19 40
e 19 41
e 19 42
e 19 43
e 19 56
e 19 94
e 19 97
e 19 100
e 20 25
e 20 26
e 20 27
e 20 28
e 20 29
e 20 30
e 20 31
e 20 32
e 20 33
e 20 37
e 20 38
e 20 39
e 20 40
e 20 42
e 20 43
e 20 56
e 20 71
e 20 72
e 20 100
e 21 25
e 21 26
e 21 27
e 21 28
e 21 29
e 21 30
e 21 31
e 21 32
e 21 33
e 21 35
e 21 36
e 21 37
e 21 38
e 21 39
e 21 40
e 21 41
e 21 42
e 21 43
e 21 44
e 21 45
e 21 46
e 21 47
e 21 56
e 21 60
e 21 61
e 21 63
e 21 67
e 21 100
e 22 25
e 22 26
e 22 27
e 22 28
e 22 29
e 22 30
e 22 31
e 22 32
e 22 33
e 22 35
e 22 36
e 22 37
e 22 38
e 22 39
e 22 40
e 22 41
e 22 42
e 22 43
e 22 44
e 22 45
e 22 46
e 22 49
e 22 52
e 22 55
e 22 59
e 22 60
e 22 61
e 23 25
e 23 26
e 23 27
e 23 28
e 23 29
e 23 30
e 23 31
e 23 32
e 23 38
e 23 39
e 23 40
e 23 41
e 23 42
e 23 43
e 23 44
e 23 45
e 23 47
e 23 48
e 23 49
e 23 50
e 23 51
e 23 52
e 23 59
e 23 60
e 23 61
e 23 62
e 23 63
e 23 64
e 23 99
e 24 25
e 24 26
e 24 27
e 24 28
e 24 29
e 24 30
e 24 31
e 24 32
e 24 33
e 24 38
e 24 39
e 24 40
e 24 41
e 24 42
e 24 43
e 24 44
e 24 45
e 24 46
e 24 47
e 24 49
e 24 50
e 24 51
e 24 52
e 24 53
e 24 54
e 24 59
e 24 60
e 24 61
e 24 63
e 24 64
e 24 66
e 24 67
e 24 69
e 25 45
e 27 50
e 27 81
e 27 90
e 28 58
e 30 97
e 32 55
e 32 76
e 33 51
e 34 48
e 36 45
e 37 46
e 37 79
e 39 90
e 42 53
e 42 58
e 47 55
e 47 66
e 47 95
e 49 96
e 53 83
e 56 90
e 57 98
e 60 67
e 60 96
e 61 86
e 62 100
e 65 92
e 66 74
e 69 76
e 69 89
e 74 81
e 74 100
e 78 95
e 79 89
e 80 90
e 94 96
